\ Model ajuste
\ LP format - for model browsing. Use MPS format to capture full model detail.
Minimize
  - 1.6823950188416711e+06 coef_ajuste + 841197.5094208397 Constant + [
   1.682395018842218e+06 coef_ajuste ^2 ] / 2 
Subject To
Bounds
 coef_ajuste <= 1
 Constant = 1
End
